NAME : XML100_3123_10
DIMENSION : 101
NB_CLUSTERS : 14
CLUSTERING_ALG : KMeans
CLUSTERING_PARAMS : k(13)
CLUSTERS
1 0
2 2 7 15 17 21 52 57 69 94
3 11 12 13 27 48 50 64 77 81 95 98
4 3 6 28 29 38 91
5 8 19 25 42 45 54 63 84 86 99
6 4 41 76 100
7 14 18 20 23 32 72 80
8 1 35 40 43 59 78 85
9 36 51 62 68 74 82
10 5 9 33 47 55 58 73 75 83 89 93
11 10 16 24 30 61 70 79 87
12 26 31 44 53 66 67 88 97
13 37 46 56 60 71
14 22 34 39 49 65 90 92 96
EOF